language ESSENCE' 1.0

letting jobs = 102
letting horizon = 782
letting resourcesRenew = 2
letting resourcesNonrenew = 2
letting resourceLimits = [59, 60, 553, 553]
letting successors = [[2, 3, 4, 5, 6, 7, 8, 9, 10, 11, 12, 13, 14, 15, 16, 17, 18, 20, 21, 22, 24, 25, 26, 30, 37, 39, 40, 41], [101, 88, 71, 70, 61, 59, 57, 56, 51, 48, 47, 45, 38, 29, 27, 23], [101, 87, 86, 84, 82, 72, 71, 70, 69, 66, 65, 64, 63, 59, 57, 56, 54, 53, 52, 51, 50, 48, 43, 32], [100, 71, 65, 62, 54, 53, 51, 49, 42, 35, 29, 19], [100, 84, 82, 81, 70, 69, 68, 66, 65, 63, 61, 60, 54, 53, 51, 48, 46, 45, 43, 33], [100, 97, 89, 85, 84, 81, 61, 59, 55, 53, 52, 47, 36, 27], [101, 100, 88, 87, 84, 72, 69, 65, 63, 61, 60, 55, 54, 49, 43, 29], [90, 83, 82, 72, 69, 67, 62, 55, 54, 53, 51, 43, 33, 31], [101, 100, 99, 98, 91, 90, 88, 87, 86, 84, 83, 82, 81, 71, 67, 64, 61, 60, 56, 51, 45, 43], [101, 99, 92, 84, 83, 82, 70, 64, 55, 48, 34, 28], [96, 91, 89, 87, 86, 82, 81, 70, 68, 66, 64, 63, 60, 59, 58, 48, 38], [101, 100, 99, 96, 95, 90, 83, 81, 72, 71, 62, 60, 59, 56, 53, 51, 34], [100, 97, 96, 93, 87, 86, 84, 83, 82, 75, 71, 68, 66, 65, 64, 62, 61, 59, 53, 50], [99, 95, 87, 85, 84, 83, 82, 65, 57, 53, 49, 32], [100, 97, 96, 93, 92, 91, 90, 87, 86, 85, 82, 81, 70, 68, 67, 64, 62, 59, 50], [97, 95, 92, 89, 88, 87, 85, 84, 81, 80, 70, 69, 65, 64, 63, 62, 59, 57, 55], [99, 97, 96, 95, 93, 92, 89, 87, 86, 84, 83, 80, 68, 67, 66, 63, 62, 61, 53], [98, 96, 94, 88, 87, 86, 85, 84, 83, 81, 79, 78, 66, 65, 64, 62, 57, 48], [101, 99, 98, 97, 92, 88, 87, 85, 84, 77, 72, 69, 66, 64, 63, 60, 55], [100, 98, 97, 96, 93, 91, 89, 87, 86, 85, 83, 81, 68, 67, 66, 62, 50], [100, 97, 96, 94, 93, 92, 91, 89, 81, 72, 71, 67, 64, 62, 59, 50], [94, 92, 85, 84, 81, 67, 65, 53, 50, 49, 44], [100, 98, 94, 89, 83, 78, 67, 65, 63, 33], [98, 97, 94, 93, 92, 89, 86, 78, 75, 68, 66, 63, 62, 60, 50], [101, 100, 97, 94, 93, 91, 90, 81, 80, 66, 59, 45], [99, 96, 93, 92, 90, 89, 87, 84, 83, 82, 80, 77, 73, 67, 62, 59], [99, 94, 93, 92, 91, 86, 82, 78, 67, 66, 65, 63, 60, 54], [100, 97, 96, 95, 89, 87, 75, 74, 68, 66, 63, 59, 53], [99, 98, 97, 96, 95, 94, 91, 89, 86, 83, 82, 80, 79, 77, 74, 73, 67, 66], [96, 95, 92, 91, 89, 86, 83, 80, 65, 62, 59, 54], [101, 94, 91, 89, 88, 87, 84, 80, 77, 76, 75, 64, 56], [97, 94, 93, 92, 91, 89, 80, 79, 78, 75, 73, 68, 62], [96, 92, 91, 87, 86, 85, 76, 75, 74, 50], [98, 94, 93, 91, 88, 86, 80, 79, 78, 77, 75, 74, 73, 66], [96, 94, 92, 90, 88, 85, 84, 81, 76, 74, 73, 69, 67], [96, 95, 94, 91, 90, 82, 80, 79, 77, 75, 74, 73, 69], [97, 96, 88, 83, 82, 78, 77, 74, 73, 70, 63], [99, 94, 93, 85, 84, 79, 78, 77, 75, 73, 62], [101, 97, 93, 91, 85, 81, 78, 75, 74, 73, 66], [99, 97, 93, 92, 89, 87, 79, 75, 73, 62], [95, 80, 77, 74, 59, 54], [96, 95, 94, 93, 92, 91, 86, 77, 74, 67], [95, 85, 80, 79, 78, 77, 76, 75, 74, 73], [96, 95, 87, 80, 78, 77, 76, 75, 74, 73], [96, 92, 89, 78, 75, 73, 62], [98, 92, 89, 80, 78, 74, 67], [91, 77, 75, 64, 62], [97, 95, 80, 77, 73, 67], [98, 96, 93, 80, 73, 66], [99, 95, 80, 79, 77, 73], [93, 92, 78, 77, 74, 73], [91, 83, 80, 75, 74, 73], [91, 78, 77, 73], [79, 76, 75, 73], [94, 93, 76, 75], [97, 92, 79, 78], [91, 90, 77, 75], [97, 92, 77, 74], [98, 79, 78], [80, 74, 73], [94, 77, 73], [76, 74], [90, 79], [74, 73], [77, 73], [76], [75], [88], [78], [76], [76], [74], [102], [102], [102], [102], [102], [102], [102], [102], [102], [102], [102], [102], [102], [102], [102], [102], [102], [102], [102], [102], [102], [102], [102], [102], [102], [102], [102], [102], [102], []]
letting durations = [[0], [1, 6, 8], [2, 3, 9], [7, 8, 10], [2, 4, 7], [2, 8, 10], [2, 9, 9], [6, 7, 8], [5, 7, 10], [5, 6, 10], [3, 4, 10], [4, 6, 8], [3, 4, 10], [1, 6, 6], [2, 3, 8], [1, 6, 9], [1, 4, 7], [5, 7, 8], [5, 8, 8], [5, 6, 10], [1, 4, 6], [1, 2, 9], [3, 4, 7], [2, 9, 10], [5, 8, 10], [5, 7, 8], [6, 7, 8], [1, 2, 5], [4, 5, 8], [3, 8, 9], [3, 8, 10], [1, 2, 3], [6, 7, 8], [3, 4, 5], [2, 3, 5], [2, 6, 7], [5, 6, 6], [4, 8, 9], [3, 4, 6], [2, 6, 6], [7, 8, 10], [1, 7, 10], [5, 6, 10], [4, 7, 8], [7, 8, 9], [7, 8, 9], [3, 8, 9], [2, 6, 9], [1, 2, 3], [1, 8, 9], [4, 10, 10], [1, 2, 8], [1, 2, 9], [3, 7, 8], [3, 5, 6], [4, 8, 9], [2, 5, 8], [1, 4, 5], [2, 3, 5], [5, 8, 8], [2, 3, 4], [2, 3, 3], [2, 3, 6], [1, 6, 9], [1, 2, 3], [1, 9, 9], [1, 6, 10], [3, 9, 10], [6, 7, 8], [1, 2, 3], [2, 2, 3], [2, 3, 4], [1, 3, 6], [7, 8, 9], [3, 4, 10], [4, 6, 9], [2, 5, 7], [2, 5, 7], [3, 4, 8], [5, 8, 10], [3, 6, 10], [5, 8, 10], [2, 4, 10], [2, 7, 9], [5, 6, 7], [7, 8, 8], [1, 6, 8], [2, 5, 10], [4, 7, 8], [1, 2, 10], [1, 2, 3], [1, 2, 3], [3, 7, 9], [1, 2, 4], [4, 5, 6], [4, 6, 9], [6, 8, 10], [4, 7, 10], [3, 8, 9], [3, 4, 9], [1, 6, 10], [0]]
letting resourceUsage = [[[0, 0, 0, 0]], [[0, 4, 9, 5], [0, 2, 7, 5], [0, 2, 6, 3]], [[4, 0, 4, 8], [4, 0, 3, 7], [4, 0, 2, 2]], [[0, 5, 8, 7], [3, 0, 4, 6], [2, 0, 3, 5]], [[0, 1, 6, 1], [2, 0, 6, 1], [1, 0, 4, 1]], [[4, 0, 5, 9], [0, 2, 5, 5], [2, 0, 5, 3]], [[0, 3, 9, 4], [0, 3, 9, 3], [3, 0, 8, 3]], [[0, 2, 5, 8], [3, 0, 3, 5], [2, 0, 3, 4]], [[0, 5, 4, 6], [0, 5, 3, 5], [0, 5, 2, 3]], [[4, 0, 8, 5], [2, 0, 5, 3], [2, 0, 3, 2]], [[0, 3, 9, 9], [0, 2, 9, 6], [0, 1, 9, 5]], [[0, 5, 8, 6], [0, 4, 7, 6], [0, 2, 4, 6]], [[0, 4, 2, 3], [3, 0, 1, 3], [0, 2, 1, 2]], [[0, 3, 4, 6], [5, 0, 3, 4], [0, 1, 3, 3]], [[0, 3, 4, 4], [3, 0, 3, 3], [3, 0, 2, 2]], [[4, 0, 8, 7], [0, 4, 7, 5], [0, 4, 6, 4]], [[5, 0, 8, 3], [0, 3, 7, 3], [4, 0, 7, 2]], [[4, 0, 8, 8], [3, 0, 6, 4], [0, 4, 2, 3]], [[0, 5, 5, 10], [0, 4, 3, 10], [3, 0, 3, 10]], [[3, 0, 7, 5], [3, 0, 6, 5], [3, 0, 6, 1]], [[4, 0, 6, 4], [4, 0, 5, 4], [0, 2, 5, 4]], [[0, 4, 10, 7], [3, 0, 8, 6], [0, 3, 6, 6]], [[0, 5, 6, 7], [2, 0, 6, 3], [2, 0, 5, 2]], [[1, 0, 3, 7], [1, 0, 3, 6], [0, 3, 3, 6]], [[4, 0, 10, 6], [0, 3, 6, 4], [0, 3, 5, 3]], [[0, 4, 4, 8], [2, 0, 4, 7], [0, 4, 4, 5]], [[0, 2, 8, 3], [0, 1, 7, 3], [2, 0, 4, 2]], [[0, 4, 7, 7], [2, 0, 5, 4], [0, 4, 5, 2]], [[3, 0, 9, 6], [2, 0, 4, 5], [0, 3, 1, 5]], [[4, 0, 8, 7], [3, 0, 6, 5], [0, 4, 5, 4]], [[4, 0, 6, 5], [0, 2, 5, 4], [3, 0, 2, 3]], [[0, 5, 1, 5], [2, 0, 1, 4], [0, 5, 1, 4]], [[3, 0, 6, 10], [0, 5, 6, 9], [2, 0, 4, 9]], [[0, 2, 9, 6], [0, 2, 6, 5], [1, 0, 5, 4]], [[2, 0, 5, 6], [1, 0, 3, 4], [1, 0, 2, 3]], [[0, 3, 9, 8], [0, 2, 5, 5], [0, 2, 4, 2]], [[0, 1, 3, 8], [3, 0, 2, 8], [0, 1, 2, 7]], [[4, 0, 7, 7], [4, 0, 6, 5], [0, 5, 5, 4]], [[1, 0, 5, 2], [1, 0, 5, 1], [0, 2, 5, 1]], [[2, 0, 9, 9], [0, 2, 8, 8], [1, 0, 6, 7]], [[0, 3, 10, 6], [3, 0, 8, 6], [2, 0, 5, 1]], [[0, 1, 5, 5], [0, 1, 4, 4], [1, 0, 3, 4]], [[0, 4, 9, 5], [3, 0, 8, 4], [3, 0, 8, 3]], [[4, 0, 8, 5], [0, 1, 8, 4], [0, 1, 6, 3]], [[2, 0, 6, 9], [1, 0, 5, 6], [1, 0, 5, 5]], [[0, 4, 4, 10], [0, 4, 2, 8], [0, 3, 1, 6]], [[4, 0, 3, 4], [3, 0, 3, 3], [3, 0, 2, 2]], [[0, 5, 8, 10], [0, 4, 8, 10], [0, 3, 6, 10]], [[3, 0, 8, 3], [2, 0, 6, 3], [1, 0, 6, 3]], [[4, 0, 9, 5], [0, 3, 9, 4], [0, 2, 9, 4]], [[0, 2, 5, 7], [3, 0, 5, 5], [0, 1, 3, 4]], [[0, 2, 9, 5], [2, 0, 6, 5], [2, 0, 3, 5]], [[0, 3, 9, 7], [0, 3, 8, 5], [1, 0, 8, 5]], [[0, 3, 6, 8], [3, 0, 6, 4], [3, 0, 6, 3]], [[0, 2, 10, 8], [0, 1, 6, 6], [0, 1, 5, 4]], [[0, 1, 5, 9], [2, 0, 5, 8], [0, 1, 5, 7]], [[3, 0, 9, 8], [0, 4, 5, 5], [0, 3, 3, 4]], [[0, 4, 8, 6], [1, 0, 8, 3], [0, 4, 8, 2]], [[5, 0, 3, 7], [5, 0, 3, 6], [5, 0, 3, 5]], [[3, 0, 6, 9], [3, 0, 5, 7], [0, 2, 4, 7]], [[0, 3, 8, 8], [0, 1, 5, 7], [0, 1, 5, 6]], [[0, 5, 9, 7], [0, 3, 7, 5], [1, 0, 4, 4]], [[0, 4, 2, 8], [0, 3, 2, 7], [0, 1, 2, 7]], [[0, 5, 6, 5], [3, 0, 4, 5], [0, 1, 2, 4]], [[4, 0, 2, 3], [4, 0, 1, 3], [3, 0, 1, 3]], [[2, 0, 6, 8], [0, 2, 6, 6], [2, 0, 4, 6]], [[0, 5, 7, 7], [0, 4, 6, 3], [0, 4, 6, 1]], [[0, 4, 9, 6], [0, 4, 7, 3], [2, 0, 7, 2]], [[0, 4, 5, 10], [3, 0, 2, 5], [0, 3, 2, 2]], [[3, 0, 5, 7], [3, 0, 5, 3], [3, 0, 4, 1]], [[4, 0, 8, 6], [0, 3, 6, 5], [0, 3, 6, 4]], [[0, 3, 6, 9], [4, 0, 6, 7], [0, 2, 6, 4]], [[0, 3, 10, 9], [0, 2, 9, 9], [2, 0, 8, 8]], [[0, 2, 8, 6], [0, 1, 5, 6], [0, 1, 5, 5]], [[5, 0, 9, 8], [5, 0, 3, 7], [5, 0, 3, 4]], [[2, 0, 9, 9], [0, 1, 8, 6], [0, 1, 8, 5]], [[5, 0, 3, 9], [0, 1, 3, 8], [3, 0, 3, 8]], [[5, 0, 3, 7], [5, 0, 2, 4], [5, 0, 1, 3]], [[4, 0, 6, 7], [3, 0, 4, 6], [0, 3, 4, 6]], [[0, 3, 8, 4], [1, 0, 4, 4], [0, 1, 4, 4]], [[4, 0, 10, 6], [3, 0, 8, 6], [0, 1, 7, 6]], [[0, 2, 9, 7], [0, 2, 9, 6], [0, 2, 9, 5]], [[0, 4, 8, 9], [0, 4, 5, 9], [0, 4, 4, 9]], [[5, 0, 2, 5], [0, 2, 2, 4], [3, 0, 2, 3]], [[0, 3, 4, 8], [0, 2, 4, 4], [1, 0, 4, 1]], [[0, 2, 3, 7], [0, 1, 2, 5], [1, 0, 1, 5]], [[0, 1, 8, 7], [4, 0, 6, 5], [0, 1, 6, 5]], [[0, 3, 10, 9], [0, 3, 7, 8], [0, 1, 6, 6]], [[0, 2, 9, 9], [2, 0, 8, 8], [2, 0, 7, 8]], [[0, 4, 10, 5], [0, 3, 6, 4], [4, 0, 4, 2]], [[0, 5, 9, 3], [0, 4, 8, 3], [0, 3, 8, 2]], [[3, 0, 5, 10], [3, 0, 4, 9], [3, 0, 4, 8]], [[5, 0, 7, 7], [0, 3, 7, 6], [3, 0, 6, 5]], [[1, 0, 4, 9], [0, 4, 2, 8], [0, 2, 2, 7]], [[0, 5, 6, 9], [1, 0, 4, 5], [1, 0, 3, 4]], [[0, 4, 8, 4], [0, 2, 6, 4], [4, 0, 5, 3]], [[0, 5, 7, 9], [1, 0, 6, 8], [1, 0, 6, 7]], [[3, 0, 9, 7], [3, 0, 6, 6], [3, 0, 6, 5]], [[3, 0, 3, 9], [0, 3, 1, 8], [0, 3, 1, 7]], [[3, 0, 8, 5], [1, 0, 7, 5], [0, 4, 6, 5]], [[0, 1, 7, 7], [4, 0, 6, 5], [0, 1, 1, 3]], [[0, 0, 0, 0]]]
